Normalized Data/p10_17_normalized_split0.vrp
NAME:p10_17_NORMALIZED_split
BEST_KNOWN: 0
COMMENT: 0
DIMENSION: 854
CAPACITY: 100
EDGE_WEIGHT_FORMAT: FUNCTION
EDGE_WEIGHT_TYPE: EXACT_2D
NODE_COORD_SECTION
1 0.00000 0.00000
2 24 -48
3 24 -48
4 -20 -30
5 -20 -30
6 -20 -30
7 -20 -30
8 -20 -30
9 -7 -1
10 -7 -1
11 -7 -1
12 -7 -1
13 -7 -1
14 -7 -1
15 26 -35
16 26 -35
17 26 -35
18 26 -35
19 26 -35
20 26 -35
21 11 28
22 11 28
23 11 28
24 11 28
25 11 28
26 11 28
27 -33 -6
28 -33 -6
29 -33 -6
30 -23 27
31 -23 27
32 -23 27
33 -23 27
34 -23 27
35 -23 27
36 29 39
37 29 39
38 29 39
39 29 39
40 29 39
41 29 39
42 19 44
43 19 44
44 19 44
45 19 44
46 19 44
47 19 44
48 14 19
49 14 19
50 14 19
51 -4 38
52 -4 38
53 -4 38
54 -4 38
55 -28 45
56 -28 45
57 -28 45
58 -28 45
59 -28 45
60 -28 45
61 30 22
62 30 22
63 30 22
64 -49 3
65 -49 3
66 -49 3
67 -49 3
68 -49 3
69 -13 -9
70 -13 -9
71 -13 -9
72 9 6
73 9 6
74 9 6
75 9 6
76 9 6
77 9 6
78 44 -45
79 44 -45
80 44 -45
81 44 -45
82 5 43
83 5 43
84 5 43
85 20 9
86 20 9
87 20 9
88 27 22
89 27 22
90 27 22
91 22 6
92 22 6
93 22 6
94 22 6
95 22 6
96 22 6
97 -19 1
98 -19 1
99 18 16
100 18 16
101 18 16
102 4 7
103 4 7
104 4 7
105 -21 -20
106 -21 -20
107 -21 -20
108 35 19
109 35 19
110 35 19
111 35 19
112 35 19
113 50 -16
114 50 -16
115 50 -16
116 50 -16
117 50 -16
118 49 10
119 49 10
120 49 10
121 49 10
122 49 10
123 -32 -33
124 -32 -33
125 -32 -33
126 -32 -33
127 -32 -33
128 -32 -33
129 -50 43
130 -50 43
131 -50 43
132 -50 43
133 47 18
134 47 18
135 47 18
136 -2 5
137 -2 5
138 -2 5
139 -2 5
140 -2 5
141 -2 5
142 46 -14
143 46 -14
144 46 -14
145 -31 1
146 -31 1
147 -31 1
148 -48 13
149 -48 13
150 -48 13
151 -48 13
152 -48 13
153 27 9
154 27 9
155 27 9
156 27 9
157 27 9
158 -37 -46
159 -37 -46
160 -37 -46
161 -37 -46
162 -12 34
163 -12 34
164 -12 34
165 27 -20
166 27 -20
167 27 -20
168 -3 -25
169 -3 -25
170 -3 -25
171 -3 -25
172 10 -1
173 10 -1
174 10 -1
175 10 -1
176 10 -1
177 34 18
178 34 18
179 34 18
180 34 18
181 34 18
182 -9 -37
183 -9 -37
184 -9 -37
185 -9 -37
186 -9 -37
187 -9 -37
188 0 -15
189 0 -15
190 0 -15
191 0 -15
192 0 -15
193 0 -15
194 -6 -13
195 -6 -13
196 -6 -13
197 -32 -45
198 -32 -45
199 -32 -45
200 8 47
201 8 47
202 8 47
203 8 47
204 -25 -27
205 -25 -27
206 -25 -27
207 -25 -27
208 -25 -27
209 -25 -27
210 -20 47
211 -20 47
212 -20 47
213 -12 -29
214 -12 -29
215 -12 -29
216 -45 -43
217 -45 -43
218 -13 -28
219 -13 -28
220 -13 -28
221 -13 -28
222 -13 -28
223 -13 -28
224 -13 -28
225 27 -13
226 27 -13
227 27 -13
228 27 -13
229 27 -13
230 27 -13
231 45 -49
232 45 -49
233 45 -49
234 45 -49
235 45 -49
236 34 -31
237 34 -31
238 34 -31
239 34 -31
240 34 -31
241 34 -31
242 12 27
243 12 27
244 12 27
245 49 -14
246 49 -14
247 49 -14
248 49 -14
249 49 -14
250 49 -14
251 31 -40
252 31 -40
253 31 -40
254 -50 36
255 -50 36
256 -9 40
257 -9 40
258 -39 -23
259 -39 -23
260 -6 -31
261 -6 -31
262 -6 -31
263 -6 -31
264 21 20
265 21 20
266 21 20
267 21 20
268 21 20
269 21 20
270 21 20
271 -16 -17
272 -16 -17
273 -16 -17
274 -16 -17
275 -16 -17
276 4 -12
277 4 -12
278 4 -12
279 4 -12
280 4 -12
281 4 -12
282 17 -6
283 17 -6
284 17 -6
285 17 -6
286 17 -6
287 -46 35
288 -46 35
289 -46 35
290 -46 35
291 20 -39
292 20 -39
293 20 -39
294 20 -39
295 20 -39
296 20 -39
297 33 -8
298 -9 16
299 -9 16
300 -9 16
301 -9 16
302 -9 16
303 -9 16
304 -6 24
305 -6 24
306 -6 24
307 -6 24
308 -6 24
309 -6 24
310 -6 24
311 -50 -50
312 -50 -50
313 43 32
314 43 32
315 43 32
316 -34 -42
317 -34 -42
318 -34 -42
319 -34 -42
320 -34 -42
321 -22 28
322 -22 28
323 -22 28
324 -22 28
325 -40 -35
326 -40 -35
327 -40 -35
328 -40 -35
329 -40 -35
330 11 -37
331 11 -37
332 11 -37
333 11 -37
334 -31 42
335 -31 42
336 -31 42
337 29 -45
338 29 -45
339 29 -45
340 29 -45
341 29 -45
342 29 -45
343 14 45
344 14 45
345 14 45
346 14 45
347 -48 28
348 -48 28
349 -48 28
350 -48 28
351 -48 28
352 -48 28
353 40 41
354 40 41
355 40 41
356 40 41
357 40 41
358 27 -20
359 27 -20
360 27 -20
361 27 -20
362 27 -20
363 -38 4
364 -38 4
365 -44 -47
366 -44 -47
367 -44 -47
368 -44 -47
369 -45 -34
370 -45 -34
371 -45 -34
372 -45 -34
373 3 -27
374 3 -27
375 3 -27
376 3 -27
377 3 -27
378 -32 45
379 -32 45
380 -32 45
381 -32 45
382 -32 45
383 16 18
384 16 18
385 16 18
386 16 18
387 -24 45
388 -24 45
389 -24 45
390 -24 45
391 -24 45
392 -24 45
393 -1 30
394 -1 30
395 -1 30
396 14 -47
397 14 -47
398 14 -47
399 14 -47
400 -36 29
401 -36 29
402 -36 29
403 -36 29
404 -36 29
405 13 -43
406 13 -43
407 13 -43
408 13 -43
409 -31 43
410 -31 43
411 -31 43
412 -31 43
413 19 -19
414 19 -19
415 19 -19
416 19 -19
417 19 -19
418 -34 -26
419 -34 -26
420 -34 -26
421 -34 -26
422 -34 -26
423 -34 -26
424 17 8
425 17 8
426 25 20
427 25 20
428 25 20
429 25 20
430 25 20
431 25 20
432 50 -6
433 50 -6
434 43 -15
435 43 -15
436 43 -15
437 43 -15
438 20 -22
439 20 -22
440 20 -22
441 20 -22
442 -19 24
443 -19 24
444 -19 24
445 -19 24
446 -19 24
447 -19 24
448 -19 24
449 -15 46
450 -15 46
451 -15 46
452 -15 46
453 5 0
454 5 0
455 5 0
456 5 0
457 5 0
458 43 -21
459 43 -21
460 38 -18
461 38 -18
462 38 -18
463 43 -47
464 43 -47
465 -8 -15
466 -8 -15
467 -8 -15
468 -7 0
469 -7 0
470 -7 0
471 -7 0
472 -7 0
473 38 -45
474 38 -45
475 38 -45
476 38 -45
477 38 -45
478 -11 14
479 -11 14
480 -11 14
481 -11 14
482 -11 14
483 -11 14
484 -47 1
485 -47 1
486 -47 1
487 -47 1
488 46 -27
489 46 -27
490 46 -27
491 46 -27
492 0 -24
493 0 -24
494 -17 -15
495 -17 -15
496 -17 -15
497 -17 -15
498 -34 6
499 -34 6
500 -34 6
501 -20 3
502 -20 3
503 -20 3
504 -20 3
505 -20 3
506 47 -32
507 47 -32
508 47 -32
509 47 -32
510 47 -32
511 47 -32
512 -50 28
513 -50 28
514 -50 28
515 -50 28
516 -50 28
517 -50 28
518 26 -27
519 26 -27
520 26 -27
521 26 -27
522 26 -27
523 -50 -38
524 -50 -38
525 -50 -38
526 -50 -38
527 3 26
528 3 26
529 3 26
530 3 26
531 3 26
532 34 47
533 34 47
534 34 47
535 37 -2
536 37 -2
537 37 -2
538 37 -2
539 37 -2
540 37 -2
541 -22 -42
542 -22 -42
543 -22 -42
544 -22 -42
545 -22 -42
546 39 -14
547 39 -14
548 39 -14
549 39 -14
550 39 -14
551 36 20
552 36 20
553 36 20
554 36 20
555 36 20
556 36 20
557 36 20
558 -33 46
559 -33 46
560 -33 46
561 -33 46
562 47 -15
563 47 -15
564 47 -15
565 47 -15
566 3 -16
567 3 -16
568 3 -16
569 3 -16
570 3 -16
571 19 -25
572 19 -25
573 19 -25
574 19 -25
575 19 -25
576 34 -26
577 34 -26
578 34 -26
579 34 -26
580 34 -26
581 -50 24
582 -50 24
583 -50 24
584 -50 24
585 -49 -9
586 -49 -9
587 -49 -9
588 -29 -26
589 -29 -26
590 -29 -26
591 -29 -26
592 -29 -26
593 -29 -26
594 -48 40
595 -48 40
596 -48 40
597 3 36
598 3 36
599 38 7
600 -44 19
601 -44 19
602 7 41
603 7 41
604 42 14
605 42 14
606 13 17
607 13 17
608 13 17
609 13 17
610 13 17
611 -45 25
612 -45 25
613 -45 25
614 -45 25
615 -45 25
616 -45 25
617 -8 -42
618 -8 -42
619 -8 -42
620 -8 -42
621 40 -22
622 40 -22
623 40 -22
624 40 -22
625 11 17
626 11 17
627 11 17
628 11 17
629 29 -50
630 29 -50
631 29 -50
632 10 50
633 10 50
634 10 50
635 10 50
636 10 50
637 37 -46
638 37 -46
639 37 -46
640 37 -46
641 37 -46
642 -39 31
643 -39 31
644 -39 31
645 -39 31
646 20 -21
647 20 -21
648 20 -21
649 20 -21
650 20 -21
651 20 -21
652 -45 -8
653 -45 -8
654 -45 -8
655 -45 -8
656 -45 -8
657 -26 -47
658 -26 -47
659 31 8
660 31 8
661 31 8
662 31 8
663 19 13
664 19 13
665 -37 5
666 -37 5
667 -37 5
668 -18 4
669 -18 4
670 -18 4
671 -18 4
672 47 32
673 47 32
674 47 32
675 47 32
676 47 32
677 47 32
678 5 -39
679 5 -39
680 5 -39
681 5 -39
682 -20 -19
683 -20 -19
684 -20 -19
685 -29 6
686 -29 6
687 -29 6
688 -29 6
689 -29 6
690 38 10
691 38 10
692 38 10
693 38 10
694 38 10
695 38 10
696 -46 -6
697 -46 -6
698 -46 -6
699 -46 -6
700 27 20
701 27 20
702 27 20
703 27 20
704 -14 -7
705 -14 -7
706 -14 -7
707 -14 -7
708 -14 -7
709 -14 -7
710 -11 -19
711 -11 -19
712 -11 -19
713 -11 -19
714 -11 -19
715 -11 -19
716 -20 -38
717 -20 -38
718 -20 -38
719 -20 -38
720 18 19
721 18 19
722 18 19
723 18 19
724 29 -16
725 29 -16
726 29 -16
727 29 -16
728 29 -16
729 29 -16
730 29 -16
731 24 45
732 24 45
733 24 45
734 24 45
735 24 45
736 43 -21
737 43 -21
738 43 -21
739 43 -21
740 43 -21
741 43 -21
742 4 -17
743 4 -17
744 4 -17
745 4 -17
746 4 -17
747 49 44
748 49 44
749 -30 -50
750 -30 -50
751 -30 -50
752 46 -16
753 46 -16
754 46 -16
755 46 -16
756 46 -16
757 5 32
758 5 32
759 5 32
760 5 32
761 -5 -9
762 -5 -9
763 46 31
764 46 31
765 46 31
766 -25 43
767 -25 43
768 -25 43
769 -25 43
770 -25 43
771 5 -6
772 5 -6
773 5 -6
774 5 -6
775 5 -6
776 -41 -40
777 -41 -40
778 -41 -40
779 27 23
780 27 23
781 27 23
782 -35 -6
783 -35 -6
784 -35 -6
785 -35 -6
786 -35 -6
787 5 -3
788 5 -3
789 5 -3
790 5 -3
791 8 -48
792 8 -48
793 8 -48
794 8 -48
795 8 -48
796 8 -48
797 -46 -13
798 -46 -13
799 -46 -13
800 -46 -13
801 27 14
802 27 14
803 27 14
804 28 5
805 28 5
806 28 5
807 -29 -44
808 -29 -44
809 -29 -44
810 -29 -44
811 -29 -44
812 -29 -44
813 21 17
814 21 17
815 21 17
816 21 17
817 21 17
818 -16 21
819 -16 21
820 -16 21
821 41 14
822 41 14
823 41 14
824 28 40
825 28 40
826 28 40
827 28 40
828 7 -24
829 7 -24
830 7 -24
831 7 -24
832 7 -24
833 7 -24
834 27 22
835 27 22
836 -7 15
837 -7 15
838 -7 15
839 -7 15
840 -7 15
841 -7 15
842 -38 5
843 -38 5
844 -38 5
845 -38 5
846 -38 5
847 -38 5
848 44 43
849 44 43
850 44 43
851 44 43
852 44 43
853 44 43
854 44 43
DEMAND_SECTION
1 0
2 20
3 20
4 10
5 5
6 1
7 1
8 1
9 20
10 10
11 1
12 1
13 1
14 1
15 10
16 5
17 1
18 1
19 1
20 1
21 10
22 5
23 1
24 1
25 1
26 1
27 20
28 20
29 5
30 20
31 10
32 5
33 1
34 1
35 1
36 10
37 5
38 1
39 1
40 1
41 1
42 20
43 20
44 5
45 1
46 1
47 1
48 10
49 5
50 1
51 20
52 10
53 1
54 1
55 20
56 20
57 5
58 1
59 1
60 1
61 20
62 10
63 1
64 20
65 10
66 5
67 1
68 1
69 20
70 1
71 1
72 10
73 5
74 1
75 1
76 1
77 1
78 20
79 20
80 5
81 1
82 20
83 10
84 1
85 10
86 5
87 1
88 20
89 20
90 10
91 20
92 10
93 5
94 1
95 1
96 1
97 20
98 20
99 20
100 20
101 1
102 20
103 20
104 5
105 20
106 5
107 1
108 20
109 10
110 5
111 1
112 1
113 10
114 5
115 1
116 1
117 1
118 10
119 1
120 1
121 1
122 1
123 20
124 5
125 1
126 1
127 1
128 1
129 20
130 20
131 1
132 1
133 20
134 1
135 1
136 20
137 10
138 5
139 1
140 1
141 1
142 10
143 5
144 1
145 10
146 5
147 1
148 20
149 5
150 1
151 1
152 1
153 20
154 10
155 1
156 1
157 1
158 20
159 1
160 1
161 1
162 20
163 10
164 1
165 20
166 5
167 1
168 20
169 10
170 5
171 1
172 20
173 10
174 5
175 1
176 1
177 20
178 10
179 1
180 1
181 1
182 20
183 10
184 5
185 1
186 1
187 1
188 10
189 5
190 1
191 1
192 1
193 1
194 20
195 20
196 1
197 20
198 10
199 1
200 20
201 10
202 1
203 1
204 20
205 5
206 1
207 1
208 1
209 1
210 20
211 20
212 1
213 20
214 10
215 1
216 20
217 1
218 20
219 10
220 5
221 1
222 1
223 1
224 1
225 20
226 10
227 1
228 1
229 1
230 1
231 10
232 5
233 1
234 1
235 1
236 20
237 10
238 5
239 1
240 1
241 1
242 10
243 1
244 1
245 20
246 10
247 5
248 1
249 1
250 1
251 20
252 1
253 1
254 20
255 1
256 20
257 20
258 20
259 20
260 10
261 1
262 1
263 1
264 20
265 10
266 5
267 1
268 1
269 1
270 1
271 20
272 10
273 1
274 1
275 1
276 20
277 5
278 1
279 1
280 1
281 1
282 20
283 20
284 5
285 1
286 1
287 20
288 5
289 1
290 1
291 20
292 5
293 1
294 1
295 1
296 1
297 20
298 20
299 10
300 5
301 1
302 1
303 1
304 20
305 20
306 5
307 1
308 1
309 1
310 1
311 20
312 20
313 20
314 1
315 1
316 20
317 20
318 1
319 1
320 1
321 20
322 10
323 1
324 1
325 20
326 10
327 5
328 1
329 1
330 10
331 5
332 1
333 1
334 20
335 20
336 5
337 20
338 20
339 5
340 1
341 1
342 1
343 10
344 1
345 1
346 1
347 20
348 20
349 1
350 1
351 1
352 1
353 20
354 10
355 5
356 1
357 1
358 10
359 1
360 1
361 1
362 1
363 20
364 1
365 20
366 10
367 5
368 1
369 20
370 1
371 1
372 1
373 10
374 1
375 1
376 1
377 1
378 10
379 5
380 1
381 1
382 1
383 20
384 20
385 5
386 1
387 20
388 5
389 1
390 1
391 1
392 1
393 20
394 20
395 5
396 10
397 5
398 1
399 1
400 20
401 1
402 1
403 1
404 1
405 20
406 5
407 1
408 1
409 20
410 1
411 1
412 1
413 20
414 20
415 1
416 1
417 1
418 20
419 10
420 1
421 1
422 1
423 1
424 20
425 10
426 20
427 20
428 1
429 1
430 1
431 1
432 20
433 20
434 20
435 10
436 1
437 1
438 20
439 5
440 1
441 1
442 20
443 10
444 5
445 1
446 1
447 1
448 1
449 10
450 1
451 1
452 1
453 10
454 1
455 1
456 1
457 1
458 20
459 1
460 10
461 5
462 1
463 20
464 20
465 20
466 1
467 1
468 20
469 20
470 1
471 1
472 1
473 20
474 10
475 5
476 1
477 1
478 20
479 10
480 5
481 1
482 1
483 1
484 20
485 20
486 5
487 1
488 20
489 5
490 1
491 1
492 20
493 20
494 20
495 5
496 1
497 1
498 20
499 20
500 5
501 20
502 5
503 1
504 1
505 1
506 20
507 20
508 1
509 1
510 1
511 1
512 20
513 20
514 5
515 1
516 1
517 1
518 20
519 5
520 1
521 1
522 1
523 20
524 10
525 5
526 1
527 10
528 1
529 1
530 1
531 1
532 20
533 5
534 1
535 20
536 5
537 1
538 1
539 1
540 1
541 20
542 5
543 1
544 1
545 1
546 10
547 1
548 1
549 1
550 1
551 20
552 20
553 5
554 1
555 1
556 1
557 1
558 20
559 20
560 1
561 1
562 20
563 1
564 1
565 1
566 10
567 1
568 1
569 1
570 1
571 10
572 1
573 1
574 1
575 1
576 10
577 5
578 1
579 1
580 1
581 20
582 20
583 5
584 1
585 20
586 20
587 1
588 20
589 10
590 5
591 1
592 1
593 1
594 20
595 10
596 5
597 20
598 20
599 20
600 10
601 5
602 20
603 20
604 10
605 5
606 20
607 20
608 1
609 1
610 1
611 20
612 20
613 1
614 1
615 1
616 1
617 20
618 20
619 1
620 1
621 10
622 1
623 1
624 1
625 20
626 20
627 5
628 1
629 20
630 20
631 5
632 10
633 1
634 1
635 1
636 1
637 20
638 20
639 1
640 1
641 1
642 10
643 5
644 1
645 1
646 20
647 10
648 5
649 1
650 1
651 1
652 20
653 10
654 5
655 1
656 1
657 20
658 20
659 20
660 5
661 1
662 1
663 20
664 20
665 20
666 10
667 5
668 20
669 5
670 1
671 1
672 20
673 20
674 5
675 1
676 1
677 1
678 20
679 20
680 5
681 1
682 20
683 20
684 1
685 20
686 1
687 1
688 1
689 1
690 20
691 20
692 5
693 1
694 1
695 1
696 20
697 10
698 5
699 1
700 20
701 10
702 1
703 1
704 20
705 20
706 5
707 1
708 1
709 1
710 20
711 10
712 1
713 1
714 1
715 1
716 20
717 10
718 5
719 1
720 20
721 1
722 1
723 1
724 20
725 10
726 5
727 1
728 1
729 1
730 1
731 20
732 5
733 1
734 1
735 1
736 20
737 10
738 1
739 1
740 1
741 1
742 20
743 10
744 1
745 1
746 1
747 20
748 1
749 20
750 10
751 1
752 20
753 10
754 5
755 1
756 1
757 20
758 10
759 5
760 1
761 20
762 10
763 20
764 5
765 1
766 20
767 1
768 1
769 1
770 1
771 20
772 10
773 1
774 1
775 1
776 10
777 1
778 1
779 20
780 20
781 5
782 10
783 1
784 1
785 1
786 1
787 10
788 5
789 1
790 1
791 20
792 5
793 1
794 1
795 1
796 1
797 20
798 5
799 1
800 1
801 20
802 20
803 5
804 20
805 10
806 5
807 20
808 20
809 1
810 1
811 1
812 1
813 20
814 10
815 5
816 1
817 1
818 20
819 20
820 1
821 20
822 1
823 1
824 20
825 5
826 1
827 1
828 10
829 5
830 1
831 1
832 1
833 1
834 20
835 10
836 20
837 10
838 5
839 1
840 1
841 1
842 10
843 5
844 1
845 1
846 1
847 1
848 20
849 10
850 5
851 1
852 1
853 1
854 1
DEPOT_SECTION
1
-1
EOF