Normalized Data/p10_17_normalized_split0.sol
853 -4 3 317 315 159 157 158 160 777 775 776 122 127 125 123 126 124 -5 7 6 811 809 808 810 806 807 197 196 198 318 316 319 -8 11 13 707 705 703 708 704 706 70 68 69 -10 12 9 468 471 470 469 467 135 138 137 140 139 136 -17 16 14 463 234 231 230 232 233 78 77 79 80 -19 18 15 252 251 250 2 1 290 292 293 291 295 294 -23 24 21 20 22 46 43 41 45 44 42 345 343 344 342 601 759 -25 242 243 241 780 779 778 700 699 430 428 269 268 266 48 -26 785 652 654 584 586 585 799 796 797 798 -28 27 651 655 653 697 695 696 698 784 781 783 782 -31 335 333 334 377 379 380 378 381 410 411 409 408 443 446 445 -33 32 30 29 34 320 321 322 323 441 447 444 442 480 482 481 -38 37 36 35 40 39 824 826 823 825 532 533 531 732 733 734 731 730 -52 50 256 255 162 161 163 299 302 -53 51 597 596 758 756 757 527 528 526 530 529 -64 67 65 66 63 484 485 483 486 144 146 145 -74 75 73 76 72 71 663 662 100 98 99 -82 81 83 202 200 201 199 633 635 634 631 632 602 -96 97 503 500 501 667 668 670 669 -102 101 103 626 624 627 625 -106 105 104 421 418 422 420 419 417 258 257 -143 142 141 114 112 116 115 113 247 245 246 249 248 244 535 537 536 534 539 -150 151 149 148 147 582 583 580 581 515 514 516 511 -170 167 169 168 492 491 187 192 189 188 -174 175 172 171 173 281 284 282 283 786 787 789 788 -180 179 178 177 176 110 108 60 62 61 429 426 427 -190 191 375 372 374 376 373 679 678 677 680 827 830 568 566 569 567 565 -195 193 194 464 760 761 -206 207 208 367 365 366 364 310 311 215 216 -213 212 214 222 220 221 217 218 223 711 713 710 709 712 714 -224 727 728 725 729 726 724 723 361 166 358 165 359 357 164 360 -226 229 228 225 227 458 739 740 738 737 457 736 735 548 545 296 -253 254 131 130 129 128 593 595 594 -259 261 262 260 616 618 619 617 182 184 185 181 183 186 219 465 466 -272 271 274 270 273 683 682 681 494 495 493 -285 549 546 547 433 435 434 436 754 752 751 755 753 563 561 564 562 -307 303 305 304 309 306 308 394 392 393 -346 349 350 348 347 351 512 513 286 287 289 288 403 400 402 -356 354 355 353 352 851 848 847 849 853 852 850 746 747 -370 371 368 369 523 524 525 522 324 327 325 328 326 591 592 -384 382 385 383 47 49 606 608 607 605 609 -391 389 388 387 58 59 56 55 54 57 558 557 559 560 -399 401 642 644 643 641 611 610 615 612 614 613 599 600 -412 415 413 650 646 648 645 439 440 437 438 -416 414 577 575 578 576 579 236 239 240 235 237 238 521 520 517 518 519 573 570 572 574 571 -423 424 86 84 85 95 90 94 91 92 93 454 455 452 456 453 -425 87 88 833 89 834 -450 451 448 449 209 211 210 386 390 765 769 766 767 768 -459 461 460 488 487 489 490 505 507 509 510 508 506 620 621 622 623 -476 475 473 474 472 462 639 640 636 637 638 -478 817 819 818 499 498 497 687 688 -479 477 298 300 301 297 836 837 838 835 840 839 -496 589 587 588 590 203 204 205 715 717 716 718 -504 502 362 363 841 844 843 846 845 842 666 665 664 684 686 685 -538 432 431 120 118 119 121 117 134 132 133 821 822 820 -540 541 542 543 544 657 656 749 748 750 -630 628 629 339 338 336 337 341 340 649 647 -659 603 604 552 551 556 554 550 555 553 109 107 111 802 -660 658 661 690 691 692 689 694 693 598 804 -702 701 314 313 312 671 675 673 672 674 676 762 764 763 -721 720 722 719 263 265 264 267 812 816 814 815 813 -741 743 742 744 745 277 280 275 276 278 279 770 771 774 773 772 -795 791 792 793 790 794 396 397 398 395 407 405 404 406 330 329 331 332 828 831 832 829 -800 801 152 156 153 154 155 803 805 0 





OBJ=
5674.005
BEST_KNOWN=
0.000